C4                                      
    1.000000000000000     
     2.4260153672736995   -0.0000002638760866    0.0000000000000000
    -1.2130084037957127    2.1009916685325316    0.0000000000000000
    -0.0000000000000000   -0.0000000000000000    5.5190763418924504
   C 
     4
Direct
 -0.0000000000000000 -0.0000000000000000  0.2500000000000000
 -0.0000000000000000 -0.0000000000000000  0.7500000000000000
  0.3333330000000032  0.6666669999999968  0.2500000000000000
  0.6666669999999968  0.3333330000000032  0.7500000000000000
 
  0.00000000E+00  0.00000000E+00  0.00000000E+00
  0.00000000E+00  0.00000000E+00  0.00000000E+00
  0.00000000E+00  0.00000000E+00  0.00000000E+00
  0.00000000E+00  0.00000000E+00  0.00000000E+00
