generated by phonopy
   1.0
     5.0261880000000003    0.0000000000000000    0.0000000000000000
    -2.5130940000000002    4.3528060000000002    0.0000000000000000
     0.0000000000000000    0.0000000000000000    8.3628040000000006
C
  32
Direct
  0.1666665000000000  0.3333335000000000  0.4686140000000000
  0.6666665000000001  0.3333335000000000  0.4686140000000000
  0.1666665000000000  0.8333334999999999  0.4686140000000000
  0.6666665000000001  0.8333334999999999  0.4686140000000000
  0.1666665000000000  0.3333335000000000  0.9686140000000000
  0.6666665000000001  0.3333335000000000  0.9686140000000000
  0.1666665000000000  0.8333334999999999  0.9686140000000000
  0.6666665000000001  0.8333334999999999  0.9686140000000000
  0.3333335000000000  0.1666665000000000  0.2186140000000000
  0.8333334999999999  0.1666665000000000  0.2186140000000000
  0.3333335000000000  0.6666665000000001  0.2186140000000000
  0.8333334999999999  0.6666665000000001  0.2186140000000000
  0.3333335000000000  0.1666665000000000  0.7186140000000000
  0.8333334999999999  0.1666665000000000  0.7186140000000000
  0.3333335000000000  0.6666665000000001  0.7186140000000000
  0.8333334999999999  0.6666665000000001  0.7186140000000000
  0.3333335000000000  0.1666665000000000  0.0313860000000000
  0.8333334999999999  0.1666665000000000  0.0313860000000000
  0.3333335000000000  0.6666665000000001  0.0313860000000000
  0.8333334999999999  0.6666665000000001  0.0313860000000000
  0.3333335000000000  0.1666665000000000  0.5313860000000000
  0.8333334999999999  0.1666665000000000  0.5313860000000000
  0.3333335000000000  0.6666665000000001  0.5313860000000000
  0.8333334999999999  0.6666665000000001  0.5313860000000000
  0.1666665000000000  0.3333335000000000  0.2813860000000000
  0.6666665000000001  0.3333335000000000  0.2813860000000000
  0.1666665000000000  0.8333334999999999  0.2813860000000000
  0.6666665000000001  0.8333334999999999  0.2813860000000000
  0.1666665000000000  0.3333335000000000  0.7813860000000000
  0.6666665000000001  0.3333335000000000  0.7813860000000000
  0.1666665000000000  0.8333334999999999  0.7813860000000000
  0.6666665000000001  0.8333334999999999  0.7813860000000000
