C8                                      
    1.000000000000000     
     3.5029692775570473   -0.0000000000000000    0.0000000000000000
     0.0000000000000000    3.5029692775570473   -0.0000000000000000
    -0.0000000000000000    0.0000000000000000    3.5029692775570473
   C 
     8
Direct
  0.7566959999999980  0.7566959999999980  0.7566959999999980
  0.0066950000000006  0.5066959999999980  0.0066950000000006
  0.5066959999999980  0.5066959999999980  0.5066959999999980
  0.0066950000000006  0.0066950000000006  0.5066959999999980
  0.5066959999999980  0.0066950000000006  0.0066950000000006
  0.7566959999999980  0.2566959999999980  0.2566959999999980
  0.2566959999999980  0.2566959999999980  0.7566959999999980
  0.2566959999999980  0.7566959999999980  0.2566959999999980
 
  0.00000000E+00  0.00000000E+00  0.00000000E+00
  0.00000000E+00  0.00000000E+00  0.00000000E+00
  0.00000000E+00  0.00000000E+00  0.00000000E+00
  0.00000000E+00  0.00000000E+00  0.00000000E+00
  0.00000000E+00  0.00000000E+00  0.00000000E+00
  0.00000000E+00  0.00000000E+00  0.00000000E+00
  0.00000000E+00  0.00000000E+00  0.00000000E+00
  0.00000000E+00  0.00000000E+00  0.00000000E+00
