PREC = ACCURATE
ALGO=FAST
ICHARG=0
NWRITE=0
LORBIT=11
LREAL=.FALSE.
ADDGRID=.TRUE.
EDIFF = 1e-6
IBRION=8
ISIF=3
ISMEAR=-5
ISPIN=2
EDIFFG=1e-4
ISYM=2
LCHARG=.FALSE.
LWAVE=.FLASE.
SYMPREC=1e-4
SIGMA=0.01
POTIM=0.015
PSTRESS=500
