C4                                      
    1.000000000000000     
     2.3730129832156899    0.0000000000000000   -0.0000000000000000
    -1.1865064916078449    2.0550892554758966    0.0000000000000000
    -0.0000000000000000    0.0000000000000000    3.9565513608509990
   C 
     4
Direct
  0.3333330000000032  0.6666669999999968  0.9366002072650784
  0.6666669999999968  0.3333330000000032  0.4366002072650785
  0.6666669999999968  0.3333330000000032  0.0633997927349216
  0.3333330000000032  0.6666669999999968  0.5633997927349216
 
  0.00000000E+00  0.00000000E+00  0.00000000E+00
  0.00000000E+00  0.00000000E+00  0.00000000E+00
  0.00000000E+00  0.00000000E+00  0.00000000E+00
  0.00000000E+00  0.00000000E+00  0.00000000E+00
