kpt_density=6000
0
Gamma
14 14  6
 0. 0. 0.
