C4                                      
    1.000000000000000     
     2.4647786385047703    0.0000000000000000    0.0000000000000000
    -1.2323893192523852    2.1345606703297646   -0.0000000000000000
     0.0000000000000000   -0.0000000000000000    4.1026764670387132
   C 
     4
Direct
  0.3333330000000032  0.6666669999999968  0.9370202500719912
  0.6666669999999968  0.3333330000000032  0.4370202500719911
  0.6666669999999968  0.3333330000000032  0.0629797499280089
  0.3333330000000032  0.6666669999999968  0.5629797499280088
 
  0.00000000E+00  0.00000000E+00  0.00000000E+00
  0.00000000E+00  0.00000000E+00  0.00000000E+00
  0.00000000E+00  0.00000000E+00  0.00000000E+00
  0.00000000E+00  0.00000000E+00  0.00000000E+00
