C4                                      
    1.000000000000000     
     2.3969555269250371   -0.0000002069644674   -0.0000000000000000
    -1.1984784284454488    2.0758250141948063    0.0000000000000000
     0.0000000000000000   -0.0000000000000000    5.0818133152916740
   C 
     4
Direct
 -0.0000000000000000  0.0000000000000000  0.2500000000000000
 -0.0000000000000000 -0.0000000000000000  0.7500000000000000
  0.3333330000000032  0.6666669999999968  0.2500000000000000
  0.6666669999999968  0.3333330000000032  0.7500000000000000
 
  0.00000000E+00  0.00000000E+00  0.00000000E+00
  0.00000000E+00  0.00000000E+00  0.00000000E+00
  0.00000000E+00  0.00000000E+00  0.00000000E+00
  0.00000000E+00  0.00000000E+00  0.00000000E+00
