C4                                      
    1.000000000000000     
     2.3725924387579225   -0.0000002316729708   -0.0000000000000000
    -1.1862969008228716    2.0547259971686591    0.0000000000000000
     0.0000000000000000   -0.0000000000000000    4.8260647300249246
   C 
     4
Direct
  0.0000000000000000 -0.0000000000000000  0.2500000000000000
 -0.0000000000000000  0.0000000000000000  0.7500000000000000
  0.3333330000000032  0.6666669999999968  0.2500000000000000
  0.6666669999999968  0.3333330000000032  0.7500000000000000
 
  0.00000000E+00  0.00000000E+00  0.00000000E+00
  0.00000000E+00  0.00000000E+00  0.00000000E+00
  0.00000000E+00  0.00000000E+00  0.00000000E+00
  0.00000000E+00  0.00000000E+00  0.00000000E+00
