C4                                      
    1.000000000000000     
     2.3517727862292563   -0.0000002465034722    0.0000000000000000
    -1.1758870831829997    2.0366956701412291   -0.0000000000000000
     0.0000000000000000   -0.0000000000000000    4.6359646541557398
   C 
     4
Direct
  0.0000000000000000 -0.0000000000000000  0.2500000000000000
 -0.0000000000000000  0.0000000000000000  0.7500000000000000
  0.3333330000000032  0.6666669999999968  0.2500000000000000
  0.6666669999999968  0.3333330000000032  0.7500000000000000
 
  0.00000000E+00  0.00000000E+00  0.00000000E+00
  0.00000000E+00  0.00000000E+00  0.00000000E+00
  0.00000000E+00  0.00000000E+00  0.00000000E+00
  0.00000000E+00  0.00000000E+00  0.00000000E+00
