generated by phonopy                    
    1.000000000000000     
     4.9345819999999998    0.0000000000000000    0.0000000000000000
    -2.4672920000000000    4.2734740000000002    0.0000000000000000
     0.0000000000000000    0.0000000000000000   15.6061460000000007
   C 
    32
Direct
  0.0000000000000000  0.0000000000000000  0.1250000000000000
  0.5000000000000000  0.0000000000000000  0.1250000000000000
  0.0000000000000000  0.5000000000000000  0.1250000000000000
  0.5000000000000000  0.5000000000000000  0.1250000000000000
  0.0000000000000000  0.0000000000000000  0.6250000000000000
  0.5000000000000000  0.0000000000000000  0.6250000000000000
  0.0000000000000000  0.5000000000000000  0.6250000000000000
  0.5000000000000000  0.5000000000000000  0.6250000000000000
  0.0000000000000000  0.0000000000000000  0.3750000000000000
  0.5000000000000000  0.0000000000000000  0.3750000000000000
  0.0000000000000000  0.5000000000000000  0.3750000000000000
  0.5000000000000000  0.5000000000000000  0.3750000000000000
  0.0000000000000000  0.0000000000000000  0.8750000000000000
  0.5000000000000000  0.0000000000000000  0.8750000000000000
  0.0000000000000000  0.5000000000000000  0.8750000000000000
  0.5000000000000000  0.5000000000000000  0.8750000000000000
  0.1666664999999981  0.3333335000000019  0.1250000000000000
  0.6666664999999981  0.3333335000000019  0.1250000000000000
  0.1666664999999981  0.8333335000000019  0.1250000000000000
  0.6666664999999981  0.8333335000000019  0.1250000000000000
  0.1666664999999981  0.3333335000000019  0.6250000000000000
  0.6666664999999981  0.3333335000000019  0.6250000000000000
  0.1666664999999981  0.8333335000000019  0.6250000000000000
  0.6666664999999981  0.8333335000000019  0.6250000000000000
  0.3333335000000019  0.1666664999999981  0.3750000000000000
  0.8333335000000019  0.1666664999999981  0.3750000000000000
  0.3333335000000019  0.6666664999999981  0.3750000000000000
  0.8333335000000019  0.6666664999999981  0.3750000000000000
  0.3333335000000019  0.1666664999999981  0.8750000000000000
  0.8333335000000019  0.1666664999999981  0.8750000000000000
  0.3333335000000019  0.6666664999999981  0.8750000000000000
  0.8333335000000019  0.6666664999999981  0.8750000000000000
 
  0.00000000E+00  0.00000000E+00  0.00000000E+00
  0.00000000E+00  0.00000000E+00  0.00000000E+00
  0.00000000E+00  0.00000000E+00  0.00000000E+00
  0.00000000E+00  0.00000000E+00  0.00000000E+00
  0.00000000E+00  0.00000000E+00  0.00000000E+00
  0.00000000E+00  0.00000000E+00  0.00000000E+00
  0.00000000E+00  0.00000000E+00  0.00000000E+00
  0.00000000E+00  0.00000000E+00  0.00000000E+00
  0.00000000E+00  0.00000000E+00  0.00000000E+00
  0.00000000E+00  0.00000000E+00  0.00000000E+00
  0.00000000E+00  0.00000000E+00  0.00000000E+00
  0.00000000E+00  0.00000000E+00  0.00000000E+00
  0.00000000E+00  0.00000000E+00  0.00000000E+00
  0.00000000E+00  0.00000000E+00  0.00000000E+00
  0.00000000E+00  0.00000000E+00  0.00000000E+00
  0.00000000E+00  0.00000000E+00  0.00000000E+00
  0.00000000E+00  0.00000000E+00  0.00000000E+00
  0.00000000E+00  0.00000000E+00  0.00000000E+00
  0.00000000E+00  0.00000000E+00  0.00000000E+00
  0.00000000E+00  0.00000000E+00  0.00000000E+00
  0.00000000E+00  0.00000000E+00  0.00000000E+00
  0.00000000E+00  0.00000000E+00  0.00000000E+00
  0.00000000E+00  0.00000000E+00  0.00000000E+00
  0.00000000E+00  0.00000000E+00  0.00000000E+00
  0.00000000E+00  0.00000000E+00  0.00000000E+00
  0.00000000E+00  0.00000000E+00  0.00000000E+00
  0.00000000E+00  0.00000000E+00  0.00000000E+00
  0.00000000E+00  0.00000000E+00  0.00000000E+00
  0.00000000E+00  0.00000000E+00  0.00000000E+00
  0.00000000E+00  0.00000000E+00  0.00000000E+00
  0.00000000E+00  0.00000000E+00  0.00000000E+00
  0.00000000E+00  0.00000000E+00  0.00000000E+00
