generated by phonopy
   1.0
     4.9345819999999998    0.0000000000000000    0.0000000000000000
    -2.4672920000000000    4.2734740000000002    0.0000000000000000
     0.0000000000000000    0.0000000000000000   15.6061460000000007
C
  32
Direct
  0.0006109590597663  0.0000000000000000  0.1256109590597663
  0.5000000000000000  0.0000000000000000  0.1250000000000000
  0.0000000000000000  0.5000000000000000  0.1250000000000000
  0.5000000000000000  0.5000000000000000  0.1250000000000000
  0.0000000000000000  0.0000000000000000  0.6250000000000000
  0.5000000000000000  0.0000000000000000  0.6250000000000000
  0.0000000000000000  0.5000000000000000  0.6250000000000000
  0.5000000000000000  0.5000000000000000  0.6250000000000000
  0.0000000000000000  0.0000000000000000  0.3749999999999999
  0.5000000000000000  0.0000000000000000  0.3749999999999999
  0.0000000000000000  0.5000000000000000  0.3749999999999999
  0.5000000000000000  0.5000000000000000  0.3749999999999999
  0.0000000000000000  0.0000000000000000  0.8750000000000000
  0.5000000000000000  0.0000000000000000  0.8750000000000000
  0.0000000000000000  0.5000000000000000  0.8750000000000000
  0.5000000000000000  0.5000000000000000  0.8750000000000000
  0.1666665000000000  0.3333335000000000  0.1250000000000000
  0.6666665000000002  0.3333335000000000  0.1250000000000000
  0.1666665000000000  0.8333335000000001  0.1250000000000000
  0.6666665000000002  0.8333335000000001  0.1250000000000000
  0.1666665000000000  0.3333335000000000  0.6250000000000000
  0.6666665000000002  0.3333335000000000  0.6250000000000000
  0.1666665000000000  0.8333335000000001  0.6250000000000000
  0.6666665000000002  0.8333335000000001  0.6250000000000000
  0.3333335000000000  0.1666665000000000  0.3749999999999999
  0.8333334999999999  0.1666665000000000  0.3749999999999999
  0.3333335000000000  0.6666665000000001  0.3749999999999999
  0.8333334999999999  0.6666665000000001  0.3749999999999999
  0.3333335000000000  0.1666665000000000  0.8750000000000000
  0.8333334999999999  0.1666665000000000  0.8750000000000000
  0.3333335000000000  0.6666665000000001  0.8750000000000000
  0.8333334999999999  0.6666665000000001  0.8750000000000000
