C4                                      
    1.000000000000000     
     2.4648833214608712    0.0000000006109271    0.0000000000000000
    -1.2324421597134374    2.1346518879400187   -0.0000000000000000
    -0.0000000000000000   -0.0000000000000000    7.3634814504208226
   C 
     4
Direct
  0.0000000000000000 -0.0000000000000000  0.2500000000000000
 -0.0000000000000000  0.0000000000000000  0.7500000000000000
  0.3333330000000032  0.6666669999999968  0.2500000000000000
  0.6666669999999968  0.3333330000000032  0.7500000000000000
 
  0.00000000E+00  0.00000000E+00  0.00000000E+00
  0.00000000E+00  0.00000000E+00  0.00000000E+00
  0.00000000E+00  0.00000000E+00  0.00000000E+00
  0.00000000E+00  0.00000000E+00  0.00000000E+00
