kpt_density=6000
0
Gamma
18 18  4
 0. 0. 0.
