kpt_density=6000
0
Gamma
 8  8  8
 0. 0. 0.
