C4
1.0
2.513094 0.000000 0.000000
-1.256547 2.176403 0.000000
0.000000 0.000000 4.181402
C
4
direct
0.333333 0.666667 0.937228 C
0.666667 0.333333 0.437228 C
0.666667 0.333333 0.062772 C
0.333333 0.666667 0.562772 C
