C4                                      
    1.000000000000000     
     2.4301370229362824   -0.0000000000000000    0.0000000000000000
    -1.2150685114681412    2.1045601505136591    0.0000000000000000
    -0.0000000000000000   -0.0000000000000000    4.0456774236631592
   C 
     4
Direct
  0.3333330000000032  0.6666669999999968  0.9368657628717648
  0.6666669999999968  0.3333330000000032  0.4368657628717650
  0.6666669999999968  0.3333330000000032  0.0631342371282351
  0.3333330000000032  0.6666669999999968  0.5631342371282352
 
  0.00000000E+00  0.00000000E+00  0.00000000E+00
  0.00000000E+00  0.00000000E+00  0.00000000E+00
  0.00000000E+00  0.00000000E+00  0.00000000E+00
  0.00000000E+00  0.00000000E+00  0.00000000E+00
