generated by phonopy                    
    1.000000000000000     
     7.0237740000000004    0.0000000000000000    0.0000000000000000
     0.0000000000000000    7.0237740000000004    0.0000000000000000
     0.0000000000000000    0.0000000000000000    7.0237740000000004
   C 
    64
Direct
  0.3783480000000026  0.3783480000000026  0.3783480000000026
  0.8783480000000026  0.3783480000000026  0.3783480000000026
  0.3783480000000026  0.8783480000000026  0.3783480000000026
  0.8783480000000026  0.8783480000000026  0.3783480000000026
  0.3783480000000026  0.3783480000000026  0.8783480000000026
  0.8783480000000026  0.3783480000000026  0.8783480000000026
  0.3783480000000026  0.8783480000000026  0.8783480000000026
  0.8783480000000026  0.8783480000000026  0.8783480000000026
  0.5033474999999967  0.2533480000000026  0.5033474999999967
  0.0033474999999967  0.2533480000000026  0.5033474999999967
  0.5033474999999967  0.7533480000000026  0.5033474999999967
  0.0033474999999967  0.7533480000000026  0.5033474999999967
  0.5033474999999967  0.2533480000000026  0.0033474999999967
  0.0033474999999967  0.2533480000000026  0.0033474999999967
  0.5033474999999967  0.7533480000000026  0.0033474999999967
  0.0033474999999967  0.7533480000000026  0.0033474999999967
  0.2533480000000026  0.2533480000000026  0.2533480000000026
  0.7533480000000026  0.2533480000000026  0.2533480000000026
  0.2533480000000026  0.7533480000000026  0.2533480000000026
  0.7533480000000026  0.7533480000000026  0.2533480000000026
  0.2533480000000026  0.2533480000000026  0.7533480000000026
  0.7533480000000026  0.2533480000000026  0.7533480000000026
  0.2533480000000026  0.7533480000000026  0.7533480000000026
  0.7533480000000026  0.7533480000000026  0.7533480000000026
  0.5033474999999967  0.5033474999999967  0.2533480000000026
  0.0033474999999967  0.5033474999999967  0.2533480000000026
  0.5033474999999967  0.0033474999999967  0.2533480000000026
  0.0033474999999967  0.0033474999999967  0.2533480000000026
  0.5033474999999967  0.5033474999999967  0.7533480000000026
  0.0033474999999967  0.5033474999999967  0.7533480000000026
  0.5033474999999967  0.0033474999999967  0.7533480000000026
  0.0033474999999967  0.0033474999999967  0.7533480000000026
  0.2533480000000026  0.5033474999999967  0.5033474999999967
  0.7533480000000026  0.5033474999999967  0.5033474999999967
  0.2533480000000026  0.0033474999999967  0.5033474999999967
  0.7533480000000026  0.0033474999999967  0.5033474999999967
  0.2533480000000026  0.5033474999999967  0.0033474999999967
  0.7533480000000026  0.5033474999999967  0.0033474999999967
  0.2533480000000026  0.0033474999999967  0.0033474999999967
  0.7533480000000026  0.0033474999999967  0.0033474999999967
  0.3783480000000026  0.1283480000000026  0.1283480000000026
  0.8783480000000026  0.1283480000000026  0.1283480000000026
  0.3783480000000026  0.6283480000000026  0.1283480000000026
  0.8783480000000026  0.6283480000000026  0.1283480000000026
  0.3783480000000026  0.1283480000000026  0.6283480000000026
  0.8783480000000026  0.1283480000000026  0.6283480000000026
  0.3783480000000026  0.6283480000000026  0.6283480000000026
  0.8783480000000026  0.6283480000000026  0.6283480000000026
  0.1283480000000026  0.1283480000000026  0.3783480000000026
  0.6283480000000026  0.1283480000000026  0.3783480000000026
  0.1283480000000026  0.6283480000000026  0.3783480000000026
  0.6283480000000026  0.6283480000000026  0.3783480000000026
  0.1283480000000026  0.1283480000000026  0.8783480000000026
  0.6283480000000026  0.1283480000000026  0.8783480000000026
  0.1283480000000026  0.6283480000000026  0.8783480000000026
  0.6283480000000026  0.6283480000000026  0.8783480000000026
  0.1283480000000026  0.3783480000000026  0.1283480000000026
  0.6283480000000026  0.3783480000000026  0.1283480000000026
  0.1283480000000026  0.8783480000000026  0.1283480000000026
  0.6283480000000026  0.8783480000000026  0.1283480000000026
  0.1283480000000026  0.3783480000000026  0.6283480000000026
  0.6283480000000026  0.3783480000000026  0.6283480000000026
  0.1283480000000026  0.8783480000000026  0.6283480000000026
  0.6283480000000026  0.8783480000000026  0.6283480000000026
 
  0.00000000E+00  0.00000000E+00  0.00000000E+00
  0.00000000E+00  0.00000000E+00  0.00000000E+00
  0.00000000E+00  0.00000000E+00  0.00000000E+00
  0.00000000E+00  0.00000000E+00  0.00000000E+00
  0.00000000E+00  0.00000000E+00  0.00000000E+00
  0.00000000E+00  0.00000000E+00  0.00000000E+00
  0.00000000E+00  0.00000000E+00  0.00000000E+00
  0.00000000E+00  0.00000000E+00  0.00000000E+00
  0.00000000E+00  0.00000000E+00  0.00000000E+00
  0.00000000E+00  0.00000000E+00  0.00000000E+00
  0.00000000E+00  0.00000000E+00  0.00000000E+00
  0.00000000E+00  0.00000000E+00  0.00000000E+00
  0.00000000E+00  0.00000000E+00  0.00000000E+00
  0.00000000E+00  0.00000000E+00  0.00000000E+00
  0.00000000E+00  0.00000000E+00  0.00000000E+00
  0.00000000E+00  0.00000000E+00  0.00000000E+00
  0.00000000E+00  0.00000000E+00  0.00000000E+00
  0.00000000E+00  0.00000000E+00  0.00000000E+00
  0.00000000E+00  0.00000000E+00  0.00000000E+00
  0.00000000E+00  0.00000000E+00  0.00000000E+00
  0.00000000E+00  0.00000000E+00  0.00000000E+00
  0.00000000E+00  0.00000000E+00  0.00000000E+00
  0.00000000E+00  0.00000000E+00  0.00000000E+00
  0.00000000E+00  0.00000000E+00  0.00000000E+00
  0.00000000E+00  0.00000000E+00  0.00000000E+00
  0.00000000E+00  0.00000000E+00  0.00000000E+00
  0.00000000E+00  0.00000000E+00  0.00000000E+00
  0.00000000E+00  0.00000000E+00  0.00000000E+00
  0.00000000E+00  0.00000000E+00  0.00000000E+00
  0.00000000E+00  0.00000000E+00  0.00000000E+00
  0.00000000E+00  0.00000000E+00  0.00000000E+00
  0.00000000E+00  0.00000000E+00  0.00000000E+00
  0.00000000E+00  0.00000000E+00  0.00000000E+00
  0.00000000E+00  0.00000000E+00  0.00000000E+00
  0.00000000E+00  0.00000000E+00  0.00000000E+00
  0.00000000E+00  0.00000000E+00  0.00000000E+00
  0.00000000E+00  0.00000000E+00  0.00000000E+00
  0.00000000E+00  0.00000000E+00  0.00000000E+00
  0.00000000E+00  0.00000000E+00  0.00000000E+00
  0.00000000E+00  0.00000000E+00  0.00000000E+00
  0.00000000E+00  0.00000000E+00  0.00000000E+00
  0.00000000E+00  0.00000000E+00  0.00000000E+00
  0.00000000E+00  0.00000000E+00  0.00000000E+00
  0.00000000E+00  0.00000000E+00  0.00000000E+00
  0.00000000E+00  0.00000000E+00  0.00000000E+00
  0.00000000E+00  0.00000000E+00  0.00000000E+00
  0.00000000E+00  0.00000000E+00  0.00000000E+00
  0.00000000E+00  0.00000000E+00  0.00000000E+00
  0.00000000E+00  0.00000000E+00  0.00000000E+00
  0.00000000E+00  0.00000000E+00  0.00000000E+00
  0.00000000E+00  0.00000000E+00  0.00000000E+00
  0.00000000E+00  0.00000000E+00  0.00000000E+00
  0.00000000E+00  0.00000000E+00  0.00000000E+00
  0.00000000E+00  0.00000000E+00  0.00000000E+00
  0.00000000E+00  0.00000000E+00  0.00000000E+00
  0.00000000E+00  0.00000000E+00  0.00000000E+00
  0.00000000E+00  0.00000000E+00  0.00000000E+00
  0.00000000E+00  0.00000000E+00  0.00000000E+00
  0.00000000E+00  0.00000000E+00  0.00000000E+00
  0.00000000E+00  0.00000000E+00  0.00000000E+00
  0.00000000E+00  0.00000000E+00  0.00000000E+00
  0.00000000E+00  0.00000000E+00  0.00000000E+00
  0.00000000E+00  0.00000000E+00  0.00000000E+00
  0.00000000E+00  0.00000000E+00  0.00000000E+00
