C8
1.0
3.511887 -0.000000 -0.000000
0.000000 3.511887 -0.000000
0.000000 0.000000 3.511887
C
8
direct
0.756696 0.756696 0.756696 C
1.006695 0.506696 1.006695 C
0.506696 0.506696 0.506696 C
1.006695 1.006695 0.506696 C
0.506696 1.006695 1.006695 C
0.756696 0.256696 0.256696 C
0.256696 0.256696 0.756696 C
0.256696 0.756696 0.256696 C
