C4                                      
    1.000000000000000     
     2.4000125826577015   -0.0000000000000000    0.0000000000000000
    -1.2000062913288507    2.0784716003812691   -0.0000000000000000
    -0.0000000000000000    0.0000000000000000    3.9994978485906163
   C 
     4
Direct
  0.3333330000000032  0.6666669999999968  0.9367306406538120
  0.6666669999999968  0.3333330000000032  0.4367306406538120
  0.6666669999999968  0.3333330000000032  0.0632693593461881
  0.3333330000000032  0.6666669999999968  0.5632693593461880
 
  0.00000000E+00  0.00000000E+00  0.00000000E+00
  0.00000000E+00  0.00000000E+00  0.00000000E+00
  0.00000000E+00  0.00000000E+00  0.00000000E+00
  0.00000000E+00  0.00000000E+00  0.00000000E+00
