PREC = Accurate
ICHARG=0
NWRITE=0
LORBIT=11
EDIFF = 1e-6
IBRION=2
ISIF=3
ISMEAR=-5
ISPIN=2
EDIFFG=1e-4
ISYM=2
LCHARG=.FALSE.
LWAVE=.FLASE.
NPAR=4
SYMPREC=1e-4
NSW=100
SIGMA=0.01
POTIM=0.015
PSTRESS=750
