C4                                      
    1.000000000000000     
     2.5055024911195769    0.0000000000000000    0.0000000000000000
    -1.2527512455597885    2.1698285626867255   -0.0000000000000000
     0.0000000000000000    0.0000000000000000    4.1694847175620735
   C 
     4
Direct
  0.3333330000000032  0.6666669999999968  0.9372533889432273
  0.6666669999999968  0.3333330000000032  0.4372533889432274
  0.6666669999999968  0.3333330000000032  0.0627466110567726
  0.3333330000000032  0.6666669999999968  0.5627466110567727
 
  0.00000000E+00  0.00000000E+00  0.00000000E+00
  0.00000000E+00  0.00000000E+00  0.00000000E+00
  0.00000000E+00  0.00000000E+00  0.00000000E+00
  0.00000000E+00  0.00000000E+00  0.00000000E+00
