generated by phonopy                    
    1.000000000000000     
     5.0261880000000003    0.0000000000000000    0.0000000000000000
    -2.5130940000000002    4.3528060000000002    0.0000000000000000
     0.0000000000000000    0.0000000000000000    8.3628040000000006
   C 
    32
Direct
  0.1666664999999981  0.3333335000000019  0.4686140000000023
  0.6666664999999981  0.3333335000000019  0.4686140000000023
  0.1666664999999981  0.8333335000000019  0.4686140000000023
  0.6666664999999981  0.8333335000000019  0.4686140000000023
  0.1666664999999981  0.3333335000000019  0.9686140000000023
  0.6666664999999981  0.3333335000000019  0.9686140000000023
  0.1666664999999981  0.8333335000000019  0.9686140000000023
  0.6666664999999981  0.8333335000000019  0.9686140000000023
  0.3333335000000019  0.1666664999999981  0.2186140000000023
  0.8333335000000019  0.1666664999999981  0.2186140000000023
  0.3333335000000019  0.6666664999999981  0.2186140000000023
  0.8333335000000019  0.6666664999999981  0.2186140000000023
  0.3333335000000019  0.1666664999999981  0.7186140000000023
  0.8333335000000019  0.1666664999999981  0.7186140000000023
  0.3333335000000019  0.6666664999999981  0.7186140000000023
  0.8333335000000019  0.6666664999999981  0.7186140000000023
  0.3333335000000019  0.1666664999999981  0.0313859999999977
  0.8333335000000019  0.1666664999999981  0.0313859999999977
  0.3333335000000019  0.6666664999999981  0.0313859999999977
  0.8333335000000019  0.6666664999999981  0.0313859999999977
  0.3333335000000019  0.1666664999999981  0.5313859999999977
  0.8333335000000019  0.1666664999999981  0.5313859999999977
  0.3333335000000019  0.6666664999999981  0.5313859999999977
  0.8333335000000019  0.6666664999999981  0.5313859999999977
  0.1666664999999981  0.3333335000000019  0.2813859999999977
  0.6666664999999981  0.3333335000000019  0.2813859999999977
  0.1666664999999981  0.8333335000000019  0.2813859999999977
  0.6666664999999981  0.8333335000000019  0.2813859999999977
  0.1666664999999981  0.3333335000000019  0.7813859999999977
  0.6666664999999981  0.3333335000000019  0.7813859999999977
  0.1666664999999981  0.8333335000000019  0.7813859999999977
  0.6666664999999981  0.8333335000000019  0.7813859999999977
 
  0.00000000E+00  0.00000000E+00  0.00000000E+00
  0.00000000E+00  0.00000000E+00  0.00000000E+00
  0.00000000E+00  0.00000000E+00  0.00000000E+00
  0.00000000E+00  0.00000000E+00  0.00000000E+00
  0.00000000E+00  0.00000000E+00  0.00000000E+00
  0.00000000E+00  0.00000000E+00  0.00000000E+00
  0.00000000E+00  0.00000000E+00  0.00000000E+00
  0.00000000E+00  0.00000000E+00  0.00000000E+00
  0.00000000E+00  0.00000000E+00  0.00000000E+00
  0.00000000E+00  0.00000000E+00  0.00000000E+00
  0.00000000E+00  0.00000000E+00  0.00000000E+00
  0.00000000E+00  0.00000000E+00  0.00000000E+00
  0.00000000E+00  0.00000000E+00  0.00000000E+00
  0.00000000E+00  0.00000000E+00  0.00000000E+00
  0.00000000E+00  0.00000000E+00  0.00000000E+00
  0.00000000E+00  0.00000000E+00  0.00000000E+00
  0.00000000E+00  0.00000000E+00  0.00000000E+00
  0.00000000E+00  0.00000000E+00  0.00000000E+00
  0.00000000E+00  0.00000000E+00  0.00000000E+00
  0.00000000E+00  0.00000000E+00  0.00000000E+00
  0.00000000E+00  0.00000000E+00  0.00000000E+00
  0.00000000E+00  0.00000000E+00  0.00000000E+00
  0.00000000E+00  0.00000000E+00  0.00000000E+00
  0.00000000E+00  0.00000000E+00  0.00000000E+00
  0.00000000E+00  0.00000000E+00  0.00000000E+00
  0.00000000E+00  0.00000000E+00  0.00000000E+00
  0.00000000E+00  0.00000000E+00  0.00000000E+00
  0.00000000E+00  0.00000000E+00  0.00000000E+00
  0.00000000E+00  0.00000000E+00  0.00000000E+00
  0.00000000E+00  0.00000000E+00  0.00000000E+00
  0.00000000E+00  0.00000000E+00  0.00000000E+00
  0.00000000E+00  0.00000000E+00  0.00000000E+00
