generated by phonopy
   1.0
     7.0237740000000004    0.0000000000000000    0.0000000000000000
     0.0000000000000000    7.0237740000000004    0.0000000000000000
     0.0000000000000000    0.0000000000000000    7.0237740000000004
C
  64
Direct
  0.3797717360142852  0.3783480000000000  0.3783480000000000
  0.8783480000000000  0.3783480000000000  0.3783480000000000
  0.3783480000000000  0.8783480000000000  0.3783480000000000
  0.8783480000000000  0.8783480000000000  0.3783480000000000
  0.3783480000000000  0.3783480000000000  0.8783480000000000
  0.8783480000000000  0.3783480000000000  0.8783480000000000
  0.3783480000000000  0.8783480000000000  0.8783480000000000
  0.8783480000000000  0.8783480000000000  0.8783480000000000
  0.5033474999999999  0.2533480000000000  0.5033474999999999
  0.0033474999999998  0.2533480000000000  0.5033474999999999
  0.5033474999999999  0.7533480000000001  0.5033474999999999
  0.0033474999999998  0.7533480000000001  0.5033474999999999
  0.5033474999999999  0.2533480000000000  0.0033474999999998
  0.0033474999999998  0.2533480000000000  0.0033474999999998
  0.5033474999999999  0.7533480000000001  0.0033474999999998
  0.0033474999999998  0.7533480000000001  0.0033474999999998
  0.2533480000000000  0.2533480000000000  0.2533480000000000
  0.7533480000000001  0.2533480000000000  0.2533480000000000
  0.2533480000000000  0.7533480000000001  0.2533480000000000
  0.7533480000000001  0.7533480000000001  0.2533480000000000
  0.2533480000000000  0.2533480000000000  0.7533480000000001
  0.7533480000000001  0.2533480000000000  0.7533480000000001
  0.2533480000000000  0.7533480000000001  0.7533480000000001
  0.7533480000000001  0.7533480000000001  0.7533480000000001
  0.5033474999999999  0.5033474999999999  0.2533480000000000
  0.0033474999999998  0.5033474999999999  0.2533480000000000
  0.5033474999999999  0.0033474999999998  0.2533480000000000
  0.0033474999999998  0.0033474999999998  0.2533480000000000
  0.5033474999999999  0.5033474999999999  0.7533480000000001
  0.0033474999999998  0.5033474999999999  0.7533480000000001
  0.5033474999999999  0.0033474999999998  0.7533480000000001
  0.0033474999999998  0.0033474999999998  0.7533480000000001
  0.2533480000000000  0.5033474999999999  0.5033474999999999
  0.7533480000000001  0.5033474999999999  0.5033474999999999
  0.2533480000000000  0.0033474999999998  0.5033474999999999
  0.7533480000000001  0.0033474999999998  0.5033474999999999
  0.2533480000000000  0.5033474999999999  0.0033474999999998
  0.7533480000000001  0.5033474999999999  0.0033474999999998
  0.2533480000000000  0.0033474999999998  0.0033474999999998
  0.7533480000000001  0.0033474999999998  0.0033474999999998
  0.3783480000000000  0.1283480000000000  0.1283480000000000
  0.8783480000000000  0.1283480000000000  0.1283480000000000
  0.3783480000000000  0.6283480000000000  0.1283480000000000
  0.8783480000000000  0.6283480000000000  0.1283480000000000
  0.3783480000000000  0.1283480000000000  0.6283480000000000
  0.8783480000000000  0.1283480000000000  0.6283480000000000
  0.3783480000000000  0.6283480000000000  0.6283480000000000
  0.8783480000000000  0.6283480000000000  0.6283480000000000
  0.1283480000000000  0.1283480000000000  0.3783480000000000
  0.6283480000000000  0.1283480000000000  0.3783480000000000
  0.1283480000000000  0.6283480000000000  0.3783480000000000
  0.6283480000000000  0.6283480000000000  0.3783480000000000
  0.1283480000000000  0.1283480000000000  0.8783480000000000
  0.6283480000000000  0.1283480000000000  0.8783480000000000
  0.1283480000000000  0.6283480000000000  0.8783480000000000
  0.6283480000000000  0.6283480000000000  0.8783480000000000
  0.1283480000000000  0.3783480000000000  0.1283480000000000
  0.6283480000000000  0.3783480000000000  0.1283480000000000
  0.1283480000000000  0.8783480000000000  0.1283480000000000
  0.6283480000000000  0.8783480000000000  0.1283480000000000
  0.1283480000000000  0.3783480000000000  0.6283480000000000
  0.6283480000000000  0.3783480000000000  0.6283480000000000
  0.1283480000000000  0.8783480000000000  0.6283480000000000
  0.6283480000000000  0.8783480000000000  0.6283480000000000
